(declare-sort g 0)

(declare-fun h (g) Int)
(declare-fun l (Int) g)
(declare-fun ag ((Array Int y)) (Array Int g))
(declare-fun ai ((Array Int g)) (Array Int y))
(declare-fun cm () Int)
(declare-fun cn () ce)
(assert (forall ((i g)) (= 0 (h i))))
(assert (forall ((k g)) (= (l (h k)) k)))
(assert (forall ((a (Array Int y)) (ah Int)) (= (h (l (h (ae (select a ah))))) (h (select (ag a) ah)))))
(assert (forall ((a (Array Int g)) (aj Int)) (= (af (z (l (h (select a aj))) true)) (af (select (ai a) aj)))))
(assert (forall ((a (Array Int g)) (aj Int)) (= (h (ae (z (l (h (select a aj))) true))) (h (ae (select (ai a) aj))))))
(assert (or (= cm 0) (ac (cl cn)) (and (v (cg cn)) (v (ch cn)) (x (ci cn)) (am (ar (cb (ck cn)))) (not (ao (ay (cb (ck cn))))))))
(check-sat)
